(set-info :Origin "This instance was generated by: BanditFuzz-- an RL fuzzer for SMT solvers" )
(set-info :Author "Joe Scott, Fed Mora, Vijay Ganesh" )
(set-info :Contact "Joe Scott, joseph.scott@uwaterloo.ca")
(set-logic QF_BV)
(declare-const bool_0 Bool)
(declare-const bool_1 Bool)
(declare-const bool_2 Bool)
(declare-const bool_3 Bool)
(declare-const bool_4 Bool)
(declare-const bv_0 (_ BitVec 32))
(declare-const bv_1 (_ BitVec 32))
(declare-const bv_2 (_ BitVec 32))
(declare-const bv_3 (_ BitVec 32))
(declare-const bv_4 (_ BitVec 32))
(assert (bvslt (bvashr (bvashr #x10c42814  #xe8bfa73d ) (bvsdiv #x318f67a5  #x3aae16a7 )) (bvand (bvsmod #x4e2d84dd  bv_3) (bvadd #x63414e45  bv_3))))
(assert (bvsle (bvsrem (bvxor bv_1 #xa86471e6 ) (bvlshr bv_1 bv_4)) (bvsub (bvashr #x6189adb4  bv_4) (bvudiv bv_0 bv_1))))
(assert (bvsle (bvlshr (bvsmod bv_3 #x1fce4e61 ) (bvashr #x3a3e7b2d  bv_2)) (bvshl (bvor #x50eddde7  bv_3) (bvsrem bv_2 #xd055a9cd ))))
(assert (not (bvsge (bvurem bv_4 #xf35644b0 ) (bvmul bv_2 #xd40f9692 ))))
(assert (bvuge (bvsdiv (bvsdiv #x9ef8f965  #x34338e52 ) (bvudiv bv_0 bv_1)) (bvsmod (bvudiv #x0e7f4068  bv_1) (bvmul bv_1 #x179ea55a ))))
(check-sat)
(exit)
